92 4
12 18 17 14
0 0 0 0 0 3 2 3 4
2 0 0 10 0 3 5 16 57
6 0 0 0 3 3 6 10 22
7 0 0 9 0 3 7 11 38
8 0 0 1 0 3 9 30 56
3 0 10 0 0 3 8 13 17
9 0 6 0 0 1 63
5 0 0 0 6 3 15 28 47
10 0 0 0 3 2 23 26
6 0 0 10 0 2 12 21
2 5 0 0 0 3 20 33 50
9 0 0 0 7 3 14 31 84
2 0 0 10 0 1 18
9 0 0 6 0 1 40
6 0 2 0 0 1 27
2 0 1 0 0 2 19 32
9 0 0 0 3 1 71
9 0 0 3 0 2 36 77
2 6 0 0 0 2 46 52
6 0 5 0 0 1 89
6 5 0 0 0 3 24 25 62
10 2 0 0 0 1 53
2 0 2 0 0 1 39
4 0 6 0 0 1 35
8 0 10 0 0 1 40
7 0 1 0 0 2 29 71
2 0 10 0 0 1 41
8 0 0 4 0 2 55 67
8 0 0 0 8 2 35 64
4 0 0 0 2 3 37 51 73
7 0 0 0 8 1 47
2 5 0 0 0 3 41 42 79
9 0 0 0 9 1 34
8 0 6 0 0 1 54
8 0 0 4 0 1 81
6 0 0 6 0 2 45 61
4 0 0 0 3 2 59 80
8 1 0 0 0 3 64 74 87
9 0 0 6 0 1 72
8 0 10 0 0 1 72
1 0 0 8 0 3 43 61 65
8 0 0 10 0 1 44
10 3 0 0 0 2 49 90
7 0 9 0 0 2 48 60
5 0 8 0 0 1 70
10 0 0 9 0 2 60 76
7 0 0 10 0 2 65 86
1 0 7 0 0 2 58 82
1 0 0 8 0 1 60
9 9 0 0 0 2 67 83
8 0 6 0 0 1 53
9 0 5 0 0 1 53
9 2 0 0 0 1 62
5 0 10 0 0 1 63
4 4 0 0 0 1 66
1 0 0 4 0 1 81
4 0 0 0 8 1 89
6 10 0 0 0 1 61
4 9 0 0 0 1 68
3 10 0 0 0 1 89
4 0 4 0 0 1 71
9 0 0 0 5 1 70
8 0 0 3 0 1 87
4 3 0 0 0 1 79
8 0 0 6 0 1 75
7 0 0 0 2 1 69
6 0 0 8 0 1 91
4 0 9 0 0 1 88
6 0 4 0 0 1 74
3 0 9 0 0 1 72
2 8 0 0 0 1 75
3 0 0 8 0 1 76
3 0 0 1 0 1 86
4 0 7 0 0 1 85
10 0 0 0 10 1 83
2 0 0 0 3 1 78
8 0 0 0 10 1 84
7 0 6 0 0 1 80
6 0 0 0 3 2 80 81
10 0 0 0 4 1 86
7 0 0 7 0 1 85
5 2 0 0 0 1 84
1 0 6 0 0 2 87 90
4 0 0 0 3 1 85
8 5 0 0 0 1 88
7 0 0 0 5 2 88 91
4 0 0 3 0 1 91
6 0 0 1 0 1 90
9 0 0 0 6 1 92
9 0 0 0 6 1 92
4 6 0 0 0 1 92
0 0 0 0 0 0 